NAME 
ROWS
 N  OBJ
 L  R0      
 L  R1      
 E  R2      
 E  R3      
 E  R4      
 E  R5      
 E  R6      
 E  R7      
 E  R8      
 E  R9      
 E  R10     
 E  R11     
COLUMNS
    MARKER    'MARKER'                 'INTORG'
    I0(7)     OBJ       -128
    I0(7)     R0        107
    I0(7)     R1        -68
    I0(7)     R2        18
    I0(7)     R3        9
    I0(7)     R4        11
    I0(7)     R6        3
    I0(7)     R11       1
    I1(8)     OBJ       -149
    I1(8)     R0        -4
    I1(8)     R1        97
    I1(8)     R2        3
    I1(8)     R3        6
    I1(8)     R4        9
    I1(8)     R5        2
    I1(8)     R6        19
    I1(8)     R11       1
    I2(5)     OBJ       160
    I2(5)     R0        141
    I2(5)     R1        -189
    I2(5)     R4        11
    I2(5)     R6        10
    I2(5)     R11       1
    I3(7)     OBJ       15
    I3(7)     R0        -13
    I3(7)     R1        1
    I3(7)     R2        14
    I3(7)     R4        19
    I3(7)     R6        3
    I3(7)     R7        7
    I3(7)     R11       1
    I4(7)     OBJ       -31
    I4(7)     R0        73
    I4(7)     R1        -127
    I4(7)     R3        13
    I4(7)     R4        8
    I4(7)     R6        10
    I4(7)     R7        9
    I4(7)     R11       1
    I5(8)     OBJ       -32
    I5(8)     R0        181
    I5(8)     R1        -4
    I5(8)     R3        7
    I5(8)     R4        2
    I5(8)     R5        1
    I5(8)     R6        11
    I5(8)     R7        14
    I5(8)     R11       1
    MARKER    'MARKER'                 'INTEND'
    C6(10)    OBJ       5
    C6(10)    R0        -9
    C6(10)    R1        -1
    C6(10)    R2        -1
    C6(10)    R3        13
    C6(10)    R4        1
    C6(10)    R5        15
    C6(10)    R6        16
    C6(10)    R7        17
    C6(10)    R9        11
    C6(10)    R10       10
    C7(8)     OBJ       8
    C7(8)     R0        2
    C7(8)     R1        2
    C7(8)     R2        18
    C7(8)     R4        19
    C7(8)     R6        17
    C7(8)     R7        9
    C7(8)     R8        16
    C7(8)     R9        14
    C8(10)    OBJ       6
    C8(10)    R0        8
    C8(10)    R1        9
    C8(10)    R2        18
    C8(10)    R3        -1
    C8(10)    R4        16
    C8(10)    R5        7
    C8(10)    R6        19
    C8(10)    R7        -1
    C8(10)    R8        15
    C8(10)    R10       2
    C9(10)    OBJ       -4
    C9(10)    R0        4
    C9(10)    R1        6
    C9(10)    R2        2
    C9(10)    R3        18
    C9(10)    R4        17
    C9(10)    R5        6
    C9(10)    R6        3
    C9(10)    R7        -1
    C9(10)    R9        3
    C9(10)    R10       1
    C10(1)    R2        1
    C11(1)    R3        1
    C12(1)    R4        1
    C13(1)    R5        1
    C14(1)    R6        1
    C15(1)    R7        1
    C16(1)    R8        1
    C17(1)    R9        1
    C18(1)    R10       1
    C19(1)    R11       1
RHS
    RHS1      R0        3.2941176470588243e+00
    RHS1      R1        2.1094117647058823e+02
    RHS1      R2        84
    RHS1      R3        94
    RHS1      R4        66
    RHS1      R5        74
    RHS1      R6        65
    RHS1      R7        99
    RHS1      R8        72
    RHS1      R9        88
    RHS1      R10       89
    RHS1      R11       2
BOUNDS
 UP BND1      I0(7)     2
 UP BND1      I1(8)     2
 UP BND1      I2(5)     2
 UP BND1      I3(7)     2
 UP BND1      I4(7)     2
 UP BND1      I5(8)     2
ENDATA
